(set-logic QF_S)
(declare-fun var0 () Int)
(declare-fun var1 () Int)
(declare-fun var2 () String)
(declare-fun var3 () Int)
(declare-fun var4 () Int)
(declare-fun var5 () String)
(declare-fun var6 () String)
(assert (<= var0 var1))
(assert (str.in.re (str.substr var2 27 var3) (re.+ re.allchar)))
(assert (< 120 var4))
(assert (str.contains var5 var6))
(check-sat)